--- Job without_instrument.gms Start 01/27/22 22:18:47 30.3.0 rc5da09e WEX-WEI x86 64bit/MS Windows
--- GAMS Parameters defined
    Input C:\Users\a.eicke\Documents\Locational-investment-signals\Two node models\without_instrument.gms
    PageSize 0
    ScrDir C:\Users\a.eicke\Documents\Locational-investment-signals\Two node models\225a\
    SysDir C:\GAMS\win64\30.3\
    LogOption 3
    ErrMsg 1
    ErrorLog 99
    IDE 1
    LstTitleLeftAligned 1
GAMS 30.3.0   Copyright (C) 1987-2020 GAMS Development. All rights reserved
Licensee: Small MUD - 5 User License                     S190305:0326AO-WIN
          Hertie School of Governance GmbH, Governance of DigitalizaDC14808
--- Starting compilation
--- without_instrument.gms(72) 3 Mb
--- GDXin=C:\Users\a.eicke\Documents\Locational-investment-signals\Two node models\in.gdx
--- without_instrument.gms(75) 3 Mb
--- GDXin=C:\Users\a.eicke\Documents\Locational-investment-signals\Two node models\load.gdx
--- without_instrument.gms(78) 3 Mb
--- GDXin=C:\Users\a.eicke\Documents\Locational-investment-signals\Two node models\avail.gdx
--- without_instrument.gms(300) 3 Mb
--- Starting execution: elapsed 0:00:00.027
--- without_instrument.gms(267) 4 Mb
--- Generating MIQCP model LOCI
--- without_instrument.gms(270) 6 Mb
---   1,151 rows  874 columns  3,195 non-zeroes
---   202 nl-code  32 nl-non-zeroes
---   232 discrete-columns
--- without_instrument.gms(270) 4 Mb
--- Executing CPLEX: elapsed 0:00:00.050

IBM ILOG CPLEX   30.3.0 rc5da09e Released Mar 06, 2020 WEI x86 64bit/MS Window
--- GAMS/Cplex licensed for continuous and discrete problems.
Cplex 12.10.0.0

The search will stop after 80000000 nodes.
Reading data...
Starting Cplex...
Space for names approximately 0.06 Mb
Use option 'names no' to turn use of names off
Version identifier: 12.10.0.0 | 2019-11-26 | 843d4de2ae
CPXPARAM_Advance                                 0
CPXPARAM_Threads                                 1
CPXPARAM_Parallel                                1
CPXPARAM_MIP_Display                             4
CPXPARAM_Simplex_Limits_Iterations               2000000000
CPXPARAM_MIP_Limits_Nodes                        80000000
CPXPARAM_TimeLimit                               150000
CPXPARAM_Tune_TimeLimit                          30000
CPXPARAM_MIP_Tolerances_AbsMIPGap                0
CPXPARAM_MIP_Tolerances_MIPGap                   0.0050000000000000001
CPXPARAM_WorkDir                                 "C:\Users\a.eicke\Documents\Locational-investment-signals\Two node models\225a\"
Tried aggregator 2 times.
MIQP Presolve eliminated 388 rows and 116 columns.
MIQP Presolve modified 310 coefficients.
Aggregator did 32 substitutions.
Reduced MIQP has 731 rows, 721 columns, and 2211 nonzeros.
Reduced MIQP has 200 binaries, 0 generals, 0 SOSs, and 0 indicators.
Reduced MIQP objective Q matrix has 32 nonzeros.
Presolve time = 0.00 sec. (2.01 ticks)
Probing fixed 12 vars, tightened 200 bounds.
Probing time = 0.00 sec. (1.04 ticks)
Cover probing fixed 0 vars, tightened 13 bounds.
Tried aggregator 2 times.
MIQP Presolve eliminated 24 rows and 24 columns.
MIQP Presolve modified 86 coefficients.
Aggregator did 5 substitutions.
Reduced MIQP has 702 rows, 692 columns, and 2096 nonzeros.
Reduced MIQP has 188 binaries, 0 generals, 0 SOSs, and 0 indicators.
Reduced MIQP objective Q matrix has 32 nonzeros.
Presolve time = 0.02 sec. (1.11 ticks)
Classifier predicts products in MIQP should be linearized.
Probing fixed 5 vars, tightened 337 bounds.
Probing time = 0.00 sec. (1.46 ticks)
Clique table members: 187.
MIP emphasis: balance optimality and feasibility.
MIP search method: dynamic search.
Parallel mode: none, using 1 thread.
Tried aggregator 1 time.
QP Presolve eliminated 73 rows and 73 columns.
Aggregator did 149 substitutions.
Reduced QP has 480 rows, 470 columns, and 1613 nonzeros.
Reduced QP objective Q matrix has 32 nonzeros.
Presolve time = 0.00 sec. (0.56 ticks)
Parallel mode: none, using 1 thread for barrier

***NOTE: Found 6 dense columns.

Number of nonzeros in lower triangle of A*A' = 2335
Using Approximate Minimum Degree ordering
Total time for automatic ordering = 0.00 sec. (0.23 ticks)
Summary statistics for Cholesky factor:
  Rows in Factor            = 486
  Integer space required    = 1359
  Total non-zeros in factor = 6736
  Total FP ops to factor    = 138476
 Itn      Primal Obj        Dual Obj  Prim Inf Upper Inf  Dual Inf          
   0  -9.9169536e+08   1.6724868e+09  6.99e+05  6.36e+05  2.14e+06
   1  -6.8890235e+07   2.5543341e+08  1.84e+05  1.67e+05  5.62e+05
   2  -3.6722002e+05   1.8922288e+07  1.45e+04  1.32e+04  4.44e+04
   3   5.3116149e+04   9.3189287e+06  5.79e+03  5.26e+03  1.77e+04
   4   1.5745129e+05   6.4559865e+06  3.00e+03  2.73e+03  9.19e+03
   5   2.7163291e+05   1.0860737e+06  2.62e+02  2.38e+02  8.03e+02
   6   3.2346048e+05   5.1566465e+05  4.39e+01  3.99e+01  1.35e+02
   7   3.3835841e+05   4.2232621e+05  1.30e+01  1.19e+01  3.99e+01
   8   3.4276018e+05   3.9402033e+05  6.28e+00  5.71e+00  1.92e+01
   9   3.4614932e+05   3.6669008e+05  1.49e+00  1.35e+00  4.56e+00
  10   3.4778230e+05   3.5593647e+05  4.61e-01  4.19e-01  1.41e+00
  11   3.4845905e+05   3.5145807e+05  1.46e-01  1.32e-01  4.46e-01
  12   3.4872608e+05   3.4964152e+05  2.02e-02  1.83e-02  6.18e-02
  13   3.4881147e+05   3.4905744e+05  5.40e-03  4.92e-03  1.66e-02
  14   3.4884102e+05   3.4884508e+05  7.66e-05  6.97e-05  2.35e-04
  15   3.4884148e+05   3.4884151e+05  3.86e-07  3.52e-07  1.18e-06
  16   3.4884149e+05   3.4884149e+05  6.87e-09  2.06e-09  5.78e-09
  17   3.4884149e+05   3.4884149e+05  4.78e-09  3.48e-10  3.97e-11
Barrier time = 0.03 sec. (7.23 ticks)

QP crossover.
  Primal and Dual:  Fixing 297 variables.
  Primal:  Pushed 160, exchanged 102.
  Dual  :  Pushed 4, exchanged 78.
Total crossover time = 0.00 sec. (5.09 ticks)

Total time on 1 threads = 0.03 sec. (12.93 ticks)
Root relaxation solution time = 0.03 sec. (12.94 ticks)

        Nodes                                         Cuts/
   Node  Left     Objective  IInf  Best Integer    Best Bound    ItCnt     Gap

      0     0   348841.4850   126                 348841.4850       17         
      0     0   348841.4850   126                   Cuts: 275      571         
      0     0   348841.4850   126                   Cuts: 254      951         
      0     0   348841.4850   126                   Cuts: 169     1234         
      0     0   348841.4850   126                    Cuts: 67     1316         
      0     0   348841.4850   126                    Cuts: 76     1376         
      0     2   348841.4850    88                 348841.4850     1376         
Elapsed time = 0.39 sec. (177.97 ticks, tree = 0.01 MB, solutions = 0)
     97    77   348685.9407    16                 348841.4850     5346         
                                                 Impl Bds: 12                  
    170   136   348717.9781    15                 348841.4850    10774         
                                                  Impl Bds: 8                  
    225   187   343042.1416    12                 348841.4850    15968         
    305   231   342868.2499    16                 348841.4850    23060         
                                                  Flowcuts: 1                  
    370   290   348841.4850    15                 348841.4850    25147         
                                                  Impl Bds: 2                  
    420   330   347330.6996     9                 348841.4850    32151         
    493   381    infeasible                       348841.4850    38059         
    560   428   348357.3856    20                 348841.4850    44810         
                                                  Impl Bds: 1                  
    620   458   346332.1603     7                 348841.4850    52235         
    917   675   347258.8039     9                 348841.4850    75897         
                                                      Cuts: 3                  
Elapsed time = 6.45 sec. (3322.48 ticks, tree = 0.35 MB, solutions = 0)
   1219   867   347739.9980     7                 348841.4850   102449         
                                                     Cuts: 10                  
   1506  1068   344481.3101    22                 348841.4850   131375         
                                                  Impl Bds: 3                  

Performing restart 1

Repeating presolve.
Tried aggregator 2 times.
MIQP Presolve eliminated 10 rows and 10 columns.
MIQP Presolve modified 202 coefficients.
Aggregator did 5 substitutions.
Reduced MIQP has 687 rows, 677 columns, and 2051 nonzeros.
Reduced MIQP has 183 binaries, 0 generals, 0 SOSs, and 0 indicators.
Reduced MIQP objective Q matrix has 32 nonzeros.
Presolve time = 0.02 sec. (1.47 ticks)
Tried aggregator 1 time.
MIQP Presolve eliminated 15 rows and 15 columns.
MIQP Presolve modified 82 coefficients.
Reduced MIQP has 672 rows, 662 columns, and 2010 nonzeros.
Reduced MIQP has 172 binaries, 0 generals, 0 SOSs, and 0 indicators.
Reduced MIQP objective Q matrix has 32 nonzeros.
Presolve time = 0.00 sec. (0.84 ticks)
Tried aggregator 1 time.
MIQP Presolve modified 110 coefficients.
Reduced MIQP has 672 rows, 662 columns, and 2010 nonzeros.
Reduced MIQP has 172 binaries, 0 generals, 0 SOSs, and 0 indicators.
Reduced MIQP objective Q matrix has 32 nonzeros.
Presolve time = 0.00 sec. (0.83 ticks)
Represolve time = 0.03 sec. (8.07 ticks)
Tried aggregator 1 time.
QP Presolve eliminated 25 rows and 0 columns.
Aggregator did 102 substitutions.
Reduced QP has 826 rows, 560 columns, and 2583 nonzeros.
Reduced QP objective Q matrix has 32 nonzeros.
Presolve time = 0.00 sec. (0.66 ticks)
Parallel mode: none, using 1 thread for barrier

***NOTE: Found 7 dense columns.

Number of nonzeros in lower triangle of A*A' = 5664
Using Approximate Minimum Degree ordering
Total time for automatic ordering = 0.00 sec. (0.47 ticks)
Summary statistics for Cholesky factor:
  Rows in Factor            = 833
  Integer space required    = 3355
  Total non-zeros in factor = 18507
  Total FP ops to factor    = 587473
 Itn      Primal Obj        Dual Obj  Prim Inf Upper Inf  Dual Inf          
   0  -1.0035509e+11   1.0079712e+11  4.02e+05  2.30e+05  6.35e+08
   1  -2.5729198e+10   2.5963531e+10  2.04e+05  1.16e+05  3.22e+08
   2  -1.7239706e+10   1.7496838e+10  1.67e+05  9.53e+04  2.64e+08
   3  -6.1901429e+08   6.7540091e+08  3.18e+04  1.81e+04  5.02e+07
   4  -1.2578767e+07   2.3567800e+07  4.63e+03  2.64e+03  7.31e+06
   5  -1.9131378e+06   7.5313425e+06  1.88e+03  1.07e+03  2.96e+06
   6   1.7728835e+05   1.5218626e+06  2.84e+02  1.62e+02  4.49e+05
   7   2.1183080e+05   1.2487899e+06  1.93e+02  1.10e+02  3.04e+05
   8   2.3426872e+05   9.9163013e+05  1.28e+02  7.28e+01  2.02e+05
   9   3.0487542e+05   1.0002791e+06  1.27e+02  7.25e+01  2.01e+05
  10   3.1358409e+05   8.5742888e+05  6.89e+01  3.93e+01  1.09e+05
  11   3.3559313e+05   4.9985563e+05  1.88e+01  1.07e+01  2.97e+04
  12   3.4263212e+05   4.1844326e+05  7.99e+00  4.56e+00  1.26e+04
  13   3.4529877e+05   3.7690006e+05  7.83e-01  4.47e-01  1.24e+03
  14   3.4723594e+05   3.6039501e+05  2.39e-01  1.36e-01  3.78e+02
  15   3.4808511e+05   3.5480031e+05  7.22e-02  4.12e-02  1.14e+02
  16   3.4848258e+05   3.5179443e+05  2.42e-02  1.38e-02  3.83e+01
  17   3.4876167e+05   3.4961152e+05  3.28e-03  1.87e-03  5.18e+00
  18   3.4882122e+05   3.4904773e+05  8.70e-04  4.96e-04  1.37e+00
  19   3.4884104e+05   3.4884657e+05  1.93e-05  1.10e-05  3.05e-02
  20   3.4884148e+05   3.4884152e+05  1.22e-07  6.75e-08  1.87e-04
  21   3.4884149e+05   3.4884149e+05  4.83e-09  5.67e-10  9.12e-07
  22   3.4884149e+05   3.4884149e+05  3.90e-09  1.80e-10  4.53e-09
Barrier time = 0.05 sec. (19.36 ticks)

QP crossover.
  Primal and Dual:  Fixing 302 variables.
  Primal:  Pushed 139, exchanged 155.
  Dual  :  Pushed 3, exchanged 131.
Removing shift (1).
Total crossover time = 0.03 sec. (9.36 ticks)

Total time on 1 threads = 0.08 sec. (29.45 ticks)
   1509     0   348841.4850   106                   Cuts: 268   131812         
   1509     0   348841.4850   106                   Cuts: 117   131974         
   1509     0   348841.4850   106                   Cuts: 102   132070         
   1509     0   348841.4850   106                    Cuts: 60   132150         
   1509     0   348841.4850   106                    Cuts: 10   132174         
   1509     0   348841.4850   106                    Cuts: 17   132212         
   1509     0   348841.4850   106                     Cuts: 7   132226         
   1509     0   348841.4850   106                     Cuts: 3   132232         
   1629   111   342943.6698    42                 348841.4850   135885         
   2025   452    infeasible                       348841.4850   152332         
   2405   791   347369.6610    11                 348841.4850   168904         

Performing restart 2

Repeating presolve.
Tried aggregator 2 times.
MIQP Presolve eliminated 7 rows and 7 columns.
Aggregator did 7 substitutions.
Reduced MIQP has 658 rows, 648 columns, and 1994 nonzeros.
Reduced MIQP has 172 binaries, 0 generals, 0 SOSs, and 0 indicators.
Reduced MIQP objective Q matrix has 32 nonzeros.
Presolve time = 0.00 sec. (1.43 ticks)
Tried aggregator 1 time.
Reduced MIQP has 658 rows, 648 columns, and 1994 nonzeros.
Reduced MIQP has 172 binaries, 0 generals, 0 SOSs, and 0 indicators.
Reduced MIQP objective Q matrix has 32 nonzeros.
Presolve time = 0.00 sec. (0.82 ticks)
Represolve time = 0.02 sec. (5.04 ticks)
Tried aggregator 1 time.
QP Presolve eliminated 12 rows and 0 columns.
Aggregator did 113 substitutions.
Reduced QP has 636 rows, 535 columns, and 2085 nonzeros.
Reduced QP objective Q matrix has 32 nonzeros.
Presolve time = 0.00 sec. (0.56 ticks)
Parallel mode: none, using 1 thread for barrier

***NOTE: Found 5 dense columns.

Number of nonzeros in lower triangle of A*A' = 3998
Using Approximate Minimum Degree ordering
Total time for automatic ordering = 0.00 sec. (0.38 ticks)
Summary statistics for Cholesky factor:
  Rows in Factor            = 641
  Integer space required    = 2528
  Total non-zeros in factor = 15014
  Total FP ops to factor    = 550614
 Itn      Primal Obj        Dual Obj  Prim Inf Upper Inf  Dual Inf          
   0  -1.5541436e+08   3.0093470e+08  3.82e+05  2.75e+05  8.66e+05
   1  -2.5366806e+07   8.9771025e+07  1.55e+05  1.11e+05  3.51e+05
   2  -3.2674445e+06   2.8832033e+07  5.52e+04  3.96e+04  1.25e+05
   3  -8.2714632e+03   7.6297620e+06  1.21e+04  8.72e+03  2.76e+04
   4   2.8056383e+05   1.8582927e+06  1.64e+03  1.18e+03  3.73e+03
   5   3.2694686e+05   6.5132330e+05  2.59e+02  1.86e+02  5.88e+02
   6   3.3959877e+05   4.4710104e+05  2.59e+01  1.86e+01  5.87e+01
   7   3.4414186e+05   3.9883915e+05  1.18e+01  8.50e+00  2.68e+01
   8   3.4652368e+05   3.6679015e+05  1.18e+00  8.48e-01  2.68e+00
   9   3.4750232e+05   3.5961853e+05  4.90e-01  3.52e-01  1.11e+00
  10   3.4834756e+05   3.5302820e+05  1.60e-01  1.15e-01  3.64e-01
  11   3.4867061e+05   3.5036290e+05  3.59e-02  2.58e-02  8.15e-02
  12   3.4879963e+05   3.4923419e+05  7.19e-03  5.16e-03  1.63e-02
  13   3.4884021e+05   3.4885447e+05  2.14e-04  1.54e-04  4.87e-04
  14   3.4884148e+05   3.4884156e+05  1.04e-06  7.49e-07  2.37e-06
  15   3.4884148e+05   3.4884149e+05  8.15e-09  3.82e-09  1.16e-08
  16   3.4884149e+05   3.4884149e+05  5.33e-09  1.12e-10  5.89e-11
Barrier time = 0.05 sec. (12.21 ticks)

QP crossover.
  Primal and Dual:  Fixing 287 variables.
  Primal:  Pushed 141, exchanged 141.
  Dual  :  Pushed 0, exchanged 117.
Total crossover time = 0.02 sec. (6.67 ticks)

Total time on 1 threads = 0.06 sec. (19.50 ticks)
   2515     0   348841.4850    69                   Cuts: 264   180223         
   2515     0   348841.4850    69                    Cuts: 87   180293         
   2515     0   348841.4850    69                    Cuts: 66   180331         
   2515     0   348841.4850    69                    Cuts: 12   180341         
   2515     0   348841.4850    69                     Cuts: 2   180347         
   2515     0   348841.4850    69                     Cuts: 2   180349         
   2515     0   348841.4850    69                 Flowcuts: 1   180351         
   2515     2   348841.4850    53                 348841.4850   180351         
   2636   113   348693.1926    16                 348841.4850   186320         
   2784   219   348785.2454    14                 348841.4850   193085         
   2993   385   346515.1403    25                 348841.4850   202229         
   3198   555   347348.4098     9                 348841.4850   213208         
Elapsed time = 23.61 sec. (13958.14 ticks, tree = 0.27 MB, solutions = 0)
   3440   756   348414.9851    20                 348841.4850   224533         
   3824  1080   347939.7641    19                 348841.4850   235981         
   4175  1361   345660.6532    14                 348841.4850   248850         
   4628  1748   348799.5115    36                 348831.2649   263588         
   5123  2157    infeasible                       348828.1026   282764         
   5715  2643   348826.4534    12                 348828.1026   304160         
   6316  3088   344827.9018    15                 348828.1026   327636         
   6825  3479   344660.1549    13                 348828.1026   352144         
   7282  3850   348828.1026    13                 348828.1026   370191         
   7805  4247   344956.4228    11                 348828.1026   389002         
Elapsed time = 39.66 sec. (23563.10 ticks, tree = 2.04 MB, solutions = 0)
*  8002  2568      integral     0   347644.3474   348828.1026   396883    0.34%
Found incumbent of value 347644.347399 after 40.23 sec. (23890.66 ticks)

Clique cuts applied:  11
Cover cuts applied:  2
Implied bound cuts applied:  20
Flow cuts applied:  18
Mixed integer rounding cuts applied:  27
Zero-half cuts applied:  1

Root node processing (before b&c):
  Real time             =    0.39 sec. (177.96 ticks)
Sequential b&c:
  Real time             =   39.84 sec. (23715.77 ticks)
                          ------------
Total (root+branch&cut) =   40.23 sec. (23893.73 ticks)
MIQP status(102): integer optimal, tolerance
Cplex Time: 40.25sec (det. 23893.73 ticks)
Fixing integer variables, and solving final QP..
Version identifier: 12.10.0.0 | 2019-11-26 | 843d4de2ae
CPXPARAM_Advance                                 2
CPXPARAM_Threads                                 1
CPXPARAM_Parallel                                1
CPXPARAM_MIP_Display                             4
CPXPARAM_Simplex_Limits_Iterations               2000000000
CPXPARAM_MIP_Limits_Nodes                        80000000
CPXPARAM_TimeLimit                               150000
CPXPARAM_Tune_TimeLimit                          30000
CPXPARAM_MIP_Tolerances_AbsMIPGap                0
CPXPARAM_MIP_Tolerances_MIPGap                   0.0050000000000000001
CPXPARAM_WorkDir                                 "C:\Users\a.eicke\Documents\Locational-investment-signals\Two node models\225a\"
Tried aggregator 1 time.
QP Presolve eliminated 887 rows and 629 columns.
Aggregator did 115 substitutions.
Reduced QP has 149 rows, 130 columns, and 538 nonzeros.
Reduced QP objective Q matrix has 30 nonzeros.
Presolve time = 0.02 sec. (0.84 ticks)
Parallel mode: none, using 1 thread for barrier

***NOTE: Found 7 dense columns.

Number of nonzeros in lower triangle of A*A' = 291
Using Approximate Minimum Degree ordering
Total time for automatic ordering = 0.00 sec. (0.02 ticks)
Summary statistics for Cholesky factor:
  Rows in Factor            = 156
  Integer space required    = 283
  Total non-zeros in factor = 1464
  Total FP ops to factor    = 16420
 Itn      Primal Obj        Dual Obj  Prim Inf Upper Inf  Dual Inf          
   0  -1.3171358e+06   1.1520611e+08  8.05e+03  1.31e+02  1.87e+05
   1  -8.6624534e+04   4.8508976e+07  3.00e+03  4.88e+01  6.95e+04
   2   3.1747439e+05   1.7582964e+06  3.63e+01  8.10e-01  8.42e+02
   3   3.3842994e+05   5.5773879e+05  4.90e+00  1.09e-01  5.52e+03
   4   3.3981206e+05   4.7532197e+05  1.62e+00  3.61e-02  1.80e+03
   5   3.4425519e+05   3.7433916e+05  6.95e-02  1.55e-03  7.79e+01
   6   3.4589101e+05   3.6075552e+05  1.81e-02  4.05e-04  1.99e+01
   7   3.4710610e+05   3.5061297e+05  3.69e-03  8.24e-05  4.18e+00
   8   3.4758404e+05   3.4795946e+05  2.92e-04  6.42e-06  2.58e-01
   9   3.4764119e+05   3.4765677e+05  1.30e-05  1.60e-07  6.53e-03
  10   3.4764428e+05   3.4764455e+05  1.37e-05  1.06e-09  5.36e-03
  11   3.4764433e+05   3.4764433e+05  2.74e-04  5.45e-11  2.67e-02
  12   3.4764434e+05   3.4764435e+05  4.80e-05  6.55e-13  1.27e-04
  13   3.4764434e+05   3.4764435e+05  4.69e-05  2.18e-13  6.32e-07
Barrier time = 0.02 sec. (2.66 ticks)

Total time on 1 threads = 0.02 sec. (2.66 ticks)
QP status(6): non-optimal
Cplex Time: 0.02sec (det. 2.66 ticks)
Final solve did not return an optimal solution.
Returning a primal only solution to GAMS (marginals all set to NA).

Solution satisfies tolerances.

MIP Solution:       347644.347399    (396883 iterations, 8003 nodes)
Best possible:      348828.102573
Absolute gap:         1183.755174
Relative gap:            0.003394

--- Restarting execution
--- without_instrument.gms(270) 2 Mb
--- Reading solution for model LOCI
***
*** Solver did not provide marginals for model LOCI
***
--- Executing after solve: elapsed 0:00:40.507
--- without_instrument.gms(300) 3 Mb
--- GDX File C:\Users\a.eicke\Documents\Locational-investment-signals\Two node models\Output/without_instrument.gdx
*** Status: Normal completion
--- Job without_instrument.gms Stop 01/27/22 22:19:27 elapsed 0:00:40.522
